c read Graph
c width = 2
c time = 16 ms
c width = 2
c time = 4980 ms
s td 26 3 28
b 1 1 2 16
b 2 2 3 17
b 3 3 4 18
b 4 4 5 19
b 5 5 6 20
b 6 6 7 21
b 7 7 8 22
b 8 8 9 23
b 9 9 10 24
b 10 10 11 25
b 11 11 12 26
b 12 12 13 27
b 13 13 14 28
b 14 13 27 28
b 15 12 26 27
b 16 11 25 26
b 17 10 24 25
b 18 9 23 24
b 19 8 22 23
b 20 7 21 22
b 21 6 20 21
b 22 5 19 20
b 23 4 18 19
b 24 3 17 18
b 25 2 16 17
b 26 1 15 16
1 26
1 25
2 25
2 24
3 24
3 23
4 23
4 22
5 22
5 21
6 21
6 20
7 20
7 19
8 19
8 18
9 18
9 17
10 17
10 16
11 16
11 15
12 15
12 14
13 14
